(set-logic QF_UF)
(declare-fun A0 () Bool)
(declare-fun A1 () Bool)
(declare-fun A2 () Bool)
(declare-fun A3 () Bool)
(declare-fun A4 () Bool)
(declare-fun A5 () Bool)
(declare-fun A6 () Bool)
(declare-fun A7 () Bool)
(declare-fun A8 () Bool)
(declare-fun A9 () Bool)
(declare-fun A10 () Bool)
(declare-fun A11 () Bool)
(declare-fun A12 () Bool)
(declare-fun A13 () Bool)
(declare-fun A14 () Bool)
(declare-fun A15 () Bool)
(declare-fun A16 () Bool)
(declare-fun A17 () Bool)
(declare-fun A18 () Bool)
(declare-fun A19 () Bool)
(declare-fun A20 () Bool)
(declare-fun A21 () Bool)
(declare-fun A22 () Bool)
(declare-fun A23 () Bool)
(declare-fun A24 () Bool)
(assert (let ((.def_0 (not A17))) (let ((.def_1 (not A23))) (let ((.def_2 (or .def_1 .def_0))) (let ((.def_3 (not .def_2))) (let ((.def_4 (not A20))) (let ((.def_5 (not A5))) (let ((.def_6 (or .def_5 .def_4))) (let ((.def_7 (= .def_6 .def_3))) (let ((.def_8 (not .def_7))) (let ((.def_9 (not A4))) (let ((.def_10 (or .def_9 A14))) (let ((.def_11 (not .def_10))) (let ((.def_12 (and A16 A10))) (let ((.def_13 (= .def_12 .def_11))) (let ((.def_14 (not .def_13))) (let ((.def_15 (or .def_14 .def_8))) (let ((.def_16 (not .def_15))) (let ((.def_17 (and A17 A0))) (let ((.def_18 (not A21))) (let ((.def_19 (and A19 .def_18))) (let ((.def_20 (not .def_19))) (let ((.def_21 (and .def_20 .def_17))) (let ((.def_22 (not .def_21))) (let ((.def_23 (not A15))) (let ((.def_24 (and .def_23 .def_9))) (let ((.def_25 (and A17 .def_5))) (let ((.def_26 (not .def_25))) (let ((.def_27 (= .def_26 .def_24))) (let ((.def_28 (not .def_27))) (let ((.def_29 (or .def_28 .def_22))) (let ((.def_30 (not .def_29))) (let ((.def_31 (or .def_30 .def_16))) (let ((.def_32 (not A19))) (let ((.def_33 (not A13))) (let ((.def_34 (or .def_33 .def_32))) (let ((.def_35 (not .def_34))) (let ((.def_36 (or A10 A15))) (let ((.def_37 (not .def_36))) (let ((.def_38 (or .def_37 .def_35))) (let ((.def_39 (not A12))) (let ((.def_40 (or .def_39 A13))) (let ((.def_41 (or A10 .def_32))) (let ((.def_42 (not .def_41))) (let ((.def_43 (= .def_42 .def_40))) (let ((.def_44 (or .def_43 .def_38))) (let ((.def_45 (and A1 .def_1))) (let ((.def_46 (not .def_45))) (let ((.def_47 (not A10))) (let ((.def_48 (or .def_47 A21))) (let ((.def_49 (or .def_48 .def_46))) (let ((.def_50 (not .def_49))) (let ((.def_51 (not A22))) (let ((.def_52 (or .def_51 A21))) (let ((.def_53 (not .def_52))) (let ((.def_54 (not A11))) (let ((.def_55 (and .def_54 A3))) (let ((.def_56 (not .def_55))) (let ((.def_57 (or .def_56 .def_53))) (let ((.def_58 (or .def_57 .def_50))) (let ((.def_59 (not .def_58))) (let ((.def_60 (and .def_59 .def_44))) (let ((.def_61 (not .def_60))) (let ((.def_62 (and .def_61 .def_31))) (let ((.def_63 (not .def_62))) (let ((.def_64 (and A5 A6))) (let ((.def_65 (not .def_64))) (let ((.def_66 (and .def_5 A17))) (let ((.def_67 (not .def_66))) (let ((.def_68 (and .def_67 .def_65))) (let ((.def_69 (or A12 A4))) (let ((.def_70 (or A0 A1))) (let ((.def_71 (not .def_70))) (let ((.def_72 (or .def_71 .def_69))) (let ((.def_73 (not .def_72))) (let ((.def_74 (or .def_73 .def_68))) (let ((.def_75 (or A9 A24))) (let ((.def_76 (not A3))) (let ((.def_77 (and .def_76 .def_23))) (let ((.def_78 (and .def_77 .def_75))) (let ((.def_79 (or .def_51 .def_76))) (let ((.def_80 (not .def_79))) (let ((.def_81 (not A2))) (let ((.def_82 (or A22 .def_81))) (let ((.def_83 (and .def_82 .def_80))) (let ((.def_84 (and .def_83 .def_78))) (let ((.def_85 (or .def_84 .def_74))) (let ((.def_86 (not .def_85))) (let ((.def_87 (and A2 A21))) (let ((.def_88 (not .def_87))) (let ((.def_89 (or A16 A15))) (let ((.def_90 (or .def_89 .def_88))) (let ((.def_91 (or A11 A2))) (let ((.def_92 (not .def_91))) (let ((.def_93 (and .def_1 A8))) (let ((.def_94 (or .def_93 .def_92))) (let ((.def_95 (not .def_94))) (let ((.def_96 (or .def_95 .def_90))) (let ((.def_97 (or A19 A24))) (let ((.def_98 (not A24))) (let ((.def_99 (and .def_98 A21))) (let ((.def_100 (not .def_99))) (let ((.def_101 (or .def_100 .def_97))) (let ((.def_102 (not .def_101))) (let ((.def_103 (or .def_51 A15))) (let ((.def_104 (not .def_103))) (let ((.def_105 (or .def_23 A23))) (let ((.def_106 (not .def_105))) (let ((.def_107 (or .def_106 .def_104))) (let ((.def_108 (or .def_107 .def_102))) (let ((.def_109 (or .def_108 .def_96))) (let ((.def_110 (not .def_109))) (let ((.def_111 (or .def_110 .def_86))) (let ((.def_112 (not .def_111))) (let ((.def_113 (and .def_112 .def_63))) (let ((.def_114 (or A9 .def_39))) (let ((.def_115 (not .def_114))) (let ((.def_116 (or A0 A21))) (let ((.def_117 (not .def_116))) (let ((.def_118 (or .def_117 .def_115))) (let ((.def_119 (not .def_118))) (let ((.def_120 (= A3 A16))) (let ((.def_121 (not A7))) (let ((.def_122 (and .def_121 A22))) (let ((.def_123 (not .def_122))) (let ((.def_124 (or .def_123 .def_120))) (let ((.def_125 (or .def_124 .def_119))) (let ((.def_126 (and A18 A19))) (let ((.def_127 (and .def_9 A6))) (let ((.def_128 (or .def_127 .def_126))) (let ((.def_129 (not .def_128))) (let ((.def_130 (and A14 .def_33))) (let ((.def_131 (not .def_130))) (let ((.def_132 (not A8))) (let ((.def_133 (and .def_76 .def_132))) (let ((.def_134 (and .def_133 .def_131))) (let ((.def_135 (or .def_134 .def_129))) (let ((.def_136 (and .def_135 .def_125))) (let ((.def_137 (not .def_136))) (let ((.def_138 (and A3 .def_54))) (let ((.def_139 (not .def_138))) (let ((.def_140 (or A3 .def_39))) (let ((.def_141 (= .def_140 .def_139))) (let ((.def_142 (not .def_141))) (let ((.def_143 (and A18 A16))) (let ((.def_144 (and .def_143 .def_100))) (let ((.def_145 (not .def_144))) (let ((.def_146 (and .def_145 .def_142))) (let ((.def_147 (not .def_146))) (let ((.def_148 (not A16))) (let ((.def_149 (or .def_148 .def_98))) (let ((.def_150 (= .def_9 .def_148))) (let ((.def_151 (or .def_150 .def_149))) (let ((.def_152 (not .def_151))) (let ((.def_153 (or A3 A5))) (let ((.def_154 (or .def_81 A3))) (let ((.def_155 (and .def_154 .def_153))) (let ((.def_156 (or .def_155 .def_152))) (let ((.def_157 (and .def_156 .def_147))) (let ((.def_158 (and .def_157 .def_137))) (let ((.def_159 (not .def_158))) (let ((.def_160 (not A0))) (let ((.def_161 (and .def_160 .def_98))) (let ((.def_162 (and .def_98 A13))) (let ((.def_163 (not .def_162))) (let ((.def_164 (or .def_163 .def_161))) (let ((.def_165 (not A18))) (let ((.def_166 (or .def_165 A6))) (let ((.def_167 (not .def_166))) (let ((.def_168 (and .def_167 .def_166))) (let ((.def_169 (not .def_168))) (let ((.def_170 (or .def_169 .def_164))) (let ((.def_171 (not .def_170))) (let ((.def_172 (not A1))) (let ((.def_173 (or .def_172 .def_9))) (let ((.def_174 (= A20 A12))) (let ((.def_175 (not .def_174))) (let ((.def_176 (and .def_175 .def_173))) (let ((.def_177 (or A16 A11))) (let ((.def_178 (not .def_177))) (let ((.def_179 (and A4 .def_39))) (let ((.def_180 (not .def_179))) (let ((.def_181 (and .def_180 .def_178))) (let ((.def_182 (or .def_181 .def_176))) (let ((.def_183 (and .def_182 .def_171))) (let ((.def_184 (not A14))) (let ((.def_185 (and .def_23 .def_184))) (let ((.def_186 (not .def_185))) (let ((.def_187 (and A7 .def_81))) (let ((.def_188 (not .def_187))) (let ((.def_189 (and .def_188 .def_186))) (let ((.def_190 (not .def_189))) (let ((.def_191 (or .def_121 A20))) (let ((.def_192 (not .def_191))) (let ((.def_193 (or .def_4 A13))) (let ((.def_194 (and .def_193 .def_192))) (let ((.def_195 (not .def_194))) (let ((.def_196 (or .def_195 .def_190))) (let ((.def_197 (not .def_196))) (let ((.def_198 (and .def_132 A22))) (let ((.def_199 (and .def_160 .def_9))) (let ((.def_200 (not .def_199))) (let ((.def_201 (or .def_200 .def_198))) (let ((.def_202 (not .def_201))) (let ((.def_203 (or .def_32 A4))) (let ((.def_204 (and A3 .def_98))) (let ((.def_205 (and .def_204 .def_203))) (let ((.def_206 (not .def_205))) (let ((.def_207 (or .def_206 .def_202))) (let ((.def_208 (or .def_207 .def_197))) (let ((.def_209 (or .def_208 .def_183))) (let ((.def_210 (not .def_209))) (let ((.def_211 (and .def_210 .def_159))) (let ((.def_212 (not .def_211))) (let ((.def_213 (and .def_212 .def_113))) (let ((.def_214 (or A16 A14))) (let ((.def_215 (and A11 .def_121))) (let ((.def_216 (not .def_215))) (let ((.def_217 (and .def_216 .def_214))) (let ((.def_218 (not .def_217))) (let ((.def_219 (or A22 A12))) (let ((.def_220 (not .def_219))) (let ((.def_221 (or A20 .def_39))) (let ((.def_222 (not .def_221))) (let ((.def_223 (or .def_222 .def_220))) (let ((.def_224 (or .def_223 .def_218))) (let ((.def_225 (not A9))) (let ((.def_226 (or A1 .def_225))) (let ((.def_227 (not .def_226))) (let ((.def_228 (and A18 A4))) (let ((.def_229 (not .def_228))) (let ((.def_230 (and .def_229 .def_227))) (let ((.def_231 (not .def_230))) (let ((.def_232 (and A9 .def_132))) (let ((.def_233 (not .def_232))) (let ((.def_234 (or A17 A20))) (let ((.def_235 (and .def_234 .def_233))) (let ((.def_236 (or .def_235 .def_231))) (let ((.def_237 (not .def_236))) (let ((.def_238 (and .def_237 .def_224))) (let ((.def_239 (and A13 .def_39))) (let ((.def_240 (= A12 .def_225))) (let ((.def_241 (not .def_240))) (let ((.def_242 (and .def_241 .def_239))) (let ((.def_243 (or .def_76 .def_148))) (let ((.def_244 (= A18 A18))) (let ((.def_245 (and .def_244 .def_243))) (let ((.def_246 (not .def_245))) (let ((.def_247 (or .def_246 .def_242))) (let ((.def_248 (not .def_247))) (let ((.def_249 (and .def_39 A3))) (let ((.def_250 (not .def_249))) (let ((.def_251 (or .def_54 .def_5))) (let ((.def_252 (and .def_251 .def_250))) (let ((.def_253 (not .def_252))) (let ((.def_254 (or A22 .def_51))) (let ((.def_255 (not .def_254))) (let ((.def_256 (= .def_54 .def_160))) (let ((.def_257 (or .def_256 .def_255))) (let ((.def_258 (or .def_257 .def_253))) (let ((.def_259 (or .def_258 .def_248))) (let ((.def_260 (and .def_259 .def_238))) (let ((.def_261 (not .def_260))) (let ((.def_262 (or A11 A16))) (let ((.def_263 (not .def_262))) (let ((.def_264 (and A6 .def_76))) (let ((.def_265 (not .def_264))) (let ((.def_266 (= .def_265 .def_263))) (let ((.def_267 (not .def_266))) (let ((.def_268 (or .def_18 .def_18))) (let ((.def_269 (or A13 A14))) (let ((.def_270 (not .def_269))) (let ((.def_271 (or .def_270 .def_268))) (let ((.def_272 (or .def_271 .def_267))) (let ((.def_273 (= .def_165 A4))) (let ((.def_274 (not .def_273))) (let ((.def_275 (and .def_0 .def_5))) (let ((.def_276 (and .def_275 .def_274))) (let ((.def_277 (not .def_276))) (let ((.def_278 (and A17 A21))) (let ((.def_279 (and A6 A14))) (let ((.def_280 (not .def_279))) (let ((.def_281 (and .def_280 .def_278))) (let ((.def_282 (not .def_281))) (let ((.def_283 (= .def_282 .def_277))) (let ((.def_284 (not .def_283))) (let ((.def_285 (and .def_284 .def_272))) (let ((.def_286 (and .def_132 A6))) (let ((.def_287 (not .def_286))) (let ((.def_288 (and A11 A23))) (let ((.def_289 (not .def_288))) (let ((.def_290 (and .def_289 .def_287))) (let ((.def_291 (not .def_290))) (let ((.def_292 (or .def_76 .def_184))) (let ((.def_293 (or A1 A3))) (let ((.def_294 (not .def_293))) (let ((.def_295 (and .def_294 .def_292))) (let ((.def_296 (not .def_295))) (let ((.def_297 (or .def_296 .def_291))) (let ((.def_298 (not A6))) (let ((.def_299 (or A3 .def_298))) (let ((.def_300 (and .def_9 .def_33))) (let ((.def_301 (or .def_300 .def_299))) (let ((.def_302 (or .def_1 A17))) (let ((.def_303 (not .def_302))) (let ((.def_304 (or .def_18 .def_160))) (let ((.def_305 (not .def_304))) (let ((.def_306 (or .def_305 .def_303))) (let ((.def_307 (= .def_306 .def_301))) (let ((.def_308 (not .def_307))) (let ((.def_309 (or .def_308 .def_297))) (let ((.def_310 (not .def_309))) (let ((.def_311 (and .def_310 .def_285))) (let ((.def_312 (not .def_311))) (let ((.def_313 (and .def_312 .def_261))) (let ((.def_314 (or A7 A1))) (let ((.def_315 (not .def_314))) (let ((.def_316 (and .def_165 A4))) (let ((.def_317 (or .def_316 .def_315))) (let ((.def_318 (not .def_317))) (let ((.def_319 (or .def_98 A17))) (let ((.def_320 (not .def_319))) (let ((.def_321 (and A16 A16))) (let ((.def_322 (not .def_321))) (let ((.def_323 (= .def_322 .def_320))) (let ((.def_324 (or .def_323 .def_318))) (let ((.def_325 (not .def_324))) (let ((.def_326 (or .def_32 .def_51))) (let ((.def_327 (not .def_326))) (let ((.def_328 (and .def_54 .def_54))) (let ((.def_329 (not .def_328))) (let ((.def_330 (or .def_329 .def_327))) (let ((.def_331 (and A22 .def_165))) (let ((.def_332 (or A19 .def_148))) (let ((.def_333 (and .def_332 .def_331))) (let ((.def_334 (not .def_333))) (let ((.def_335 (and .def_334 .def_330))) (let ((.def_336 (not .def_335))) (let ((.def_337 (or .def_336 .def_325))) (let ((.def_338 (not .def_337))) (let ((.def_339 (or A15 .def_81))) (let ((.def_340 (or A12 A15))) (let ((.def_341 (or .def_340 .def_339))) (let ((.def_342 (and A19 .def_1))) (let ((.def_343 (or .def_47 .def_1))) (let ((.def_344 (not .def_343))) (let ((.def_345 (and .def_344 .def_342))) (let ((.def_346 (not .def_345))) (let ((.def_347 (and .def_346 .def_341))) (let ((.def_348 (not .def_347))) (let ((.def_349 (= A4 A0))) (let ((.def_350 (not .def_349))) (let ((.def_351 (and A9 .def_47))) (let ((.def_352 (and .def_351 .def_350))) (let ((.def_353 (not .def_352))) (let ((.def_354 (and .def_148 A2))) (let ((.def_355 (or A18 A8))) (let ((.def_356 (and .def_355 .def_354))) (let ((.def_357 (not .def_356))) (let ((.def_358 (and .def_357 .def_353))) (let ((.def_359 (and .def_358 .def_348))) (let ((.def_360 (not .def_359))) (let ((.def_361 (and .def_360 .def_338))) (let ((.def_362 (and A22 A6))) (let ((.def_363 (not .def_362))) (let ((.def_364 (or A20 .def_81))) (let ((.def_365 (and .def_364 .def_363))) (let ((.def_366 (or A7 A24))) (let ((.def_367 (not .def_366))) (let ((.def_368 (and A8 A11))) (let ((.def_369 (and .def_368 .def_367))) (let ((.def_370 (not .def_369))) (let ((.def_371 (and .def_370 .def_365))) (let ((.def_372 (= A7 .def_39))) (let ((.def_373 (not .def_372))) (let ((.def_374 (= .def_23 A1))) (let ((.def_375 (not .def_374))) (let ((.def_376 (= .def_375 .def_373))) (let ((.def_377 (and A19 A14))) (let ((.def_378 (not .def_377))) (let ((.def_379 (and A21 A14))) (let ((.def_380 (not .def_379))) (let ((.def_381 (and .def_380 .def_378))) (let ((.def_382 (not .def_381))) (let ((.def_383 (or .def_382 .def_376))) (let ((.def_384 (or .def_383 .def_371))) (let ((.def_385 (or .def_33 A17))) (let ((.def_386 (not .def_385))) (let ((.def_387 (= A21 A21))) (let ((.def_388 (not .def_387))) (let ((.def_389 (or .def_388 .def_386))) (let ((.def_390 (= A0 A12))) (let ((.def_391 (not .def_390))) (let ((.def_392 (= .def_391 .def_363))) (let ((.def_393 (and .def_392 .def_389))) (let ((.def_394 (not .def_393))) (let ((.def_395 (or A21 .def_23))) (let ((.def_396 (not .def_395))) (let ((.def_397 (or .def_396 .def_106))) (let ((.def_398 (not .def_397))) (let ((.def_399 (or A18 .def_1))) (let ((.def_400 (not .def_399))) (let ((.def_401 (= .def_54 .def_121))) (let ((.def_402 (not .def_401))) (let ((.def_403 (and .def_402 .def_400))) (let ((.def_404 (and .def_403 .def_398))) (let ((.def_405 (not .def_404))) (let ((.def_406 (and .def_405 .def_394))) (let ((.def_407 (not .def_406))) (let ((.def_408 (and .def_407 .def_384))) (let ((.def_409 (or .def_408 .def_361))) (let ((.def_410 (and .def_409 .def_313))) (let ((.def_411 (not .def_410))) (let ((.def_412 (and .def_411 .def_213))) .def_412))))))))))))))))))))))))))))))))))))))))))))))))))))))))))))))))))))))))))))))))))))))))))))))))))))))))))))))))))))))))))))))))))))))))))))))))))))))))))))))))))))))))))))))))))))))))))))))))))))))))))))))))))))))))))))))))))))))))))))))))))))))))))))))))))))))))))))))))))))))))))))))))))))))))))))))))))))))))))))))))))))))))))))))))))))))))))))))))))))))))))))))))))))))))))))))))))))))))))))))))))))))))))))))
(check-sat)
